Version identifier: 22.1.0.0 | 2022-03-09 | 1a383f8ce
CPXPARAM_Threads                                 1
CPXPARAM_MIP_Strategy_VariableSelect             3
CPXPARAM_TimeLimit                               599.99997429099994
1 of 1 MIP starts provided solutions.
MIP start 'm1' defined initial solution with objective 43.0000.
Tried aggregator 1 time.
MIP Presolve eliminated 17 rows and 0 columns.
MIP Presolve modified 49 coefficients.
Reduced MIP has 4504 rows, 10500 columns, and 226123 nonzeros.
Reduced MIP has 10500 binaries, 0 generals, 0 SOSs, and 0 indicators.
Presolve time = 0.22 sec. (368.98 ticks)
Probing time = 0.03 sec. (27.56 ticks)
Tried aggregator 1 time.
Detecting symmetries...
MIP Presolve modified 15 coefficients.
Reduced MIP has 4504 rows, 10500 columns, and 226297 nonzeros.
Reduced MIP has 10500 binaries, 0 generals, 0 SOSs, and 0 indicators.
Presolve time = 0.22 sec. (345.60 ticks)
Probing time = 0.03 sec. (27.58 ticks)
Clique table members: 3241.
MIP emphasis: balance optimality and feasibility.
MIP search method: dynamic search.
Parallel mode: none, using 1 thread.
Root relaxation solution time = 62.63 sec. (71464.34 ticks)

        Nodes                                         Cuts/
   Node  Left     Objective  IInf  Best Integer    Best Bound    ItCnt     Gap

*     0+    0                           43.0000   125250.0000              --- 
      0     0      500.0000  1979       43.0000      500.0000    89386     --- 
*     0+    0                          283.0000      500.0000            76.68%
      0     0      500.0000  1696      283.0000      Cuts: 19   147323   76.68%
*     0+    0                          500.0000      500.0000             0.00%
      0     0        cutoff            500.0000      500.0000   147323    0.00%
Elapsed time = 136.33 sec. (153210.31 ticks, tree = 0.01 MB, solutions = 3)

Clique cuts applied:  8
Zero-half cuts applied:  4

Root node processing (before b&c):
  Real time             =  136.33 sec. (153211.52 ticks)
Sequential b&c:
  Real time             =    0.00 sec. (0.00 ticks)
                          ------------
Total (root+branch&cut) =  136.33 sec. (153211.52 ticks)
Primal:	500
Dual:	500
Status:	Optimal
Time:	136.38
Sequence:
	19
	6
	1
	19
	12
	2
	19
	12
	2
	19
	6
	4
	19
	6
	18
	19
	6
	18
	19
	12
	5
	19
	6
	18
	19
	12
	2
	19
	18
	6
	19
	18
	1
	16
	15
	5
	16
	2
	7
	16
	5
	15
	16
	5
	11
	3
	13
	11
	3
	13
	15
	3
	18
	9
	14
	18
	10
	17
	18
	10
	8
	4
	10
	17
	4
	10
	17
	18
	10
	17
	4
	13
	8
	7
	13
	17
	7
	13
	8
	7
	13
	17
	1
	10
	17
	1
	10
	8
	1
	10
	17
	2
	10
	14
	4
	9
	14
	18
	9
	3
	2
	9
	14
	18
	9
	14
	18
	9
	3
	18
	9
	3
	4
	9
	14
	1
	9
	14
	18
	9
	14
	18
	9
	3
	18
	13
	3
	11
	13
	3
	11
	0
	14
	11
	0
	14
	11
	0
	4
	8
	10
	18
	17
	10
	5
	17
	10
	4
	8
	10
	4
	8
	10
	4
	8
	10
	2
	17
	10
	4
	8
	13
	7
	8
	0
	7
	8
	0
	7
	17
	13
	7
	8
	0
	7
	8
	0
	7
	8
	0
	7
	8
	0
	7
	17
	13
	7
	8
	13
	7
	8
	13
	7
	8
	0
	7
	17
	13
	7
	3
	13
	11
	3
	13
	11
	14
	0
	11
	3
	13
	11
	3
	13
	11
	3
	13
	11
	14
	0
	15
	2
	16
	7
	6
	16
	1
	6
	19
	5
	12
	19
	5
	12
	19
	2
	18
	19
	6
	18
	19
	6
	18
	19
	6
	2
	19
	6
	1
	16
	6
	1
	19
	6
	2
	19
	6
	2
	19
	6
	2
	16
	15
	5
	16
	15
	5
	16
	15
	5
	16
	15
	1
	3
	9
	18
	3
	9
	2
	14
	0
	15
	3
	13
	11
	14
	0
	15
	3
	13
	11
	14
	0
	11
	3
	13
	11
	14
	0
	15
	14
	1
	9
	14
	18
	9
	14
	18
	9
	3
	18
	10
	8
	1
	10
	8
	1
	10
	8
	4
	10
	8
	4
	10
	14
	18
	9
	14
	18
	10
	17
	18
	10
	8
	4
	10
	17
	4
	10
	17
	5
	13
	11
	14
	0
	11
	14
	0
	11
	3
	13
	15
	14
	0
	11
	3
	0
	11
	3
	0
	7
	8
	13
	7
	8
	0
	7
	17
	0
	7
	8
	5
	10
	14
	4
	9
	3
	4
	9
	3
	1
	9
	14
	18
	9
	14
	1
	12
	19
	5
	4
	9
	4
	3
	10
	4
	8
	10
	2
	17
	10
	2
	17
	10
	18
	3
	9
	2
	1
	19
	18
	6
	19
	2
	12
	19
	4
	5
	19
	12
	5
	19
	6
	1
	19
	12
	2
	19
	12
	2
	19
	12
	2
	19
	6
	2
	19
	12
	2
	16
	6
	1
	19
	6
	1
	19
	12
	2
	16
	5
	15
	16
	5
	15
	16
	5
	15
	16
	5
	15
	16
	2
	5
	19
	6
	4
	19
	6
	4
	19
	6
	5
	19
	12
	5
	16
	15
	5
	16
	15
	5
	16
	15
	5
	16
	15
	5
	16
	15
	5
	16
	7
	2
	16
	7
	18
	14
	9
	18
	14
	9
